coords = array2d(1..73, 1..2, [544, 650, 62, 901, 842, 733, 804, 166, 242, 391,
    518, 771, 476, 261, 550, 979, 932, 893, 209, 857, 699, 454, 90,
    129, 237, 993, 39, 472, 35, 729, 391, 484, 230, 229, 820, 366,
    606, 895, 286, 303, 40, 922, 33, 560, 512, 470, 383, 289, 18, 92,
    553, 12, 785, 507, 389, 240, 185, 243, 121, 396, 650, 677, 530,
    89, 816, 299, 163, 132, 899, 397, 309, 309, 504, 723, 892, 509,
    158, 754, 693, 832, 256, 795, 574, 480, 164, 695, 372, 82, 617,
    765, 260, 839, 96, 257, 151, 24, 403, 621, 437, 882, 808, 523,
    237, 940, 148, 343, 919, 183, 315, 102, 713, 311, 4, 782, 600,
    915, 542, 582, 210, 16, 123, 942, 787, 638, 191, 270, 565, 396,
    890, 467, 580, 76, 983, 836, 592, 112, 345, 464, 923, 543, 145,
    785, 255, 85, 85, 747]);

n = 73;

